c turning on binary mode checking
c parsing input formula with 259840 variables and 1039924 clauses
c finished parsing, read 4440100 bytes from proof file
c detected empty clause; start verification via backward checking
c 3780 of 1039924 clauses in core                            
c 1190 of 169448 lemmas in core using 38044 resolution steps
c 0 RAT lemmas in core; 140 redundant literals in core lemmas
s VERIFIED
c verification time: 1.330 seconds
